N = 25;
MinK = 3;
Capacity = 200;

Scale = 10;
DistanceRoundingMode = Floor;
X = array1d(0..N, [40, 45, 45, 42, 42, 42, 40, 40, 38, 38, 35, 35, 25, 22, 22, 20, 20, 18, 15, 15, 30, 30, 28, 28, 25, 25]);
Y = array1d(0..N, [50, 68, 70, 66, 68, 65, 69, 66, 68, 70, 66, 69, 85, 75, 85, 80, 85, 75, 75, 80, 50, 52, 52, 55, 50, 52]);

Demands = array1d(1..N, [10, 30, 10, 10, 10, 20, 20, 20, 10, 10, 10, 20, 30, 10, 40, 40, 20, 20, 10, 10, 20, 20, 10, 10, 40]);

ServiceTimes = array1d(1..N, [90, 90, 90, 90, 90, 90, 90, 90, 90, 90, 90, 90, 90, 90, 90, 90, 90, 90, 90, 90, 90, 90, 90, 90, 90]);

TimeWindows = array2d(1..2, 0..N, [|
     0,    0,    0,    0, 727,    0,    0,    0, 255, 534,    0, 448,    0, 30,    0, 384,    0,    0,    0,    0,    0,    0,    0, 732,    0, 169 |
  1236, 1127, 1125, 1129, 782, 1130, 1127, 1130, 324, 605, 1129, 505, 1107, 92, 1106, 429, 1105, 1112, 1110, 1106, 1136, 1135, 1133, 777, 1131, 224
|]);
